50
1 0 3
2 0 1
2 1 1
3 0 7
3 1 5
3 2 6
4 0 9
4 1 9
4 2 4
4 3 7
5 0 8
5 1 4
5 2 2
5 3 1
5 4 4
6 0 7
6 1 2
6 2 5
6 3 6
6 4 3
6 5 9
7 0 7
7 1 10
7 2 6
7 3 1
7 4 1
7 5 2
7 6 5
8 0 2
8 1 3
8 2 1
8 3 6
8 4 1
8 5 1
8 6 9
8 7 8
9 0 5
9 1 1
9 2 10
9 3 5
9 4 8
9 5 8
9 6 9
9 7 1
9 8 2
10 0 3
10 1 7
10 2 8
10 3 10
10 4 3
10 5 7
10 6 4
10 7 10
10 8 9
10 9 7
11 0 10
11 1 9
11 2 7
11 3 7
11 4 8
11 5 4
11 6 1
11 7 4
11 8 2
11 9 1
11 10 8
12 0 5
12 1 4
12 2 3
12 3 3
12 4 4
12 5 4
12 6 6
12 7 10
12 8 9
12 9 2
12 10 10
12 11 1
13 0 7
13 1 1
13 2 3
13 3 6
13 4 9
13 5 1
13 6 9
13 7 5
13 8 4
13 9 1
13 10 1
13 11 10
13 12 1
14 0 7
14 1 10
14 2 4
14 3 5
14 4 2
14 5 2
14 6 5
14 7 7
14 8 7
14 9 9
14 10 5
14 11 1
14 12 2
14 13 10
15 0 9
15 1 6
15 2 2
15 3 7
15 4 6
15 5 10
15 6 7
15 7 10
15 8 10
15 9 2
15 10 8
15 11 10
15 12 8
15 13 2
15 14 6
16 0 10
16 1 1
16 2 10
16 3 6
16 4 5
16 5 7
16 6 2
16 7 8
16 8 5
16 9 7
16 10 4
16 11 9
16 12 2
16 13 3
16 14 6
16 15 1
17 0 7
17 1 1
17 2 3
17 3 1
17 4 4
17 5 1
17 6 9
17 7 10
17 8 1
17 9 8
17 10 9
17 11 8
17 12 2
17 13 7
17 14 5
17 15 8
17 16 8
18 0 3
18 1 5
18 2 1
18 3 4
18 4 1
18 5 1
18 6 6
18 7 2
18 8 4
18 9 4
18 10 5
18 11 3
18 12 1
18 13 5
18 14 9
18 15 3
18 16 9
18 17 7
19 0 2
19 1 10
19 2 6
19 3 5
19 4 3
19 5 2
19 6 10
19 7 4
19 8 4
19 9 7
19 10 7
19 11 1
19 12 5
19 13 6
19 14 3
19 15 1
19 16 3
19 17 2
19 18 8
20 0 3
20 1 7
20 2 10
20 3 4
20 4 3
20 5 5
20 6 3
20 7 7
20 8 5
20 9 9
20 10 6
20 11 5
20 12 3
20 13 2
20 14 10
20 15 8
20 16 10
20 17 1
20 18 4
20 19 1
21 0 1
21 1 5
21 2 10
21 3 9
21 4 4
21 5 1
21 6 9
21 7 9
21 8 9
21 9 6
21 10 4
21 11 4
21 12 1
21 13 7
21 14 7
21 15 4
21 16 3
21 17 10
21 18 5
21 19 7
21 20 4
22 0 10
22 1 10
22 2 10
22 3 9
22 4 3
22 5 4
22 6 3
22 7 2
22 8 6
22 9 2
22 10 9
22 11 2
22 12 2
22 13 8
22 14 6
22 15 6
22 16 1
22 17 10
22 18 4
22 19 9
22 20 6
22 21 9
23 0 6
23 1 8
23 2 6
23 3 7
23 4 1
23 5 4
23 6 7
23 7 7
23 8 5
23 9 8
23 10 1
23 11 9
23 12 4
23 13 2
23 14 7
23 15 9
23 16 2
23 17 9
23 18 9
23 19 8
23 20 6
23 21 9
23 22 8
24 0 7
24 1 7
24 2 3
24 3 6
24 4 7
24 5 5
24 6 5
24 7 2
24 8 7
24 9 10
24 10 6
24 11 5
24 12 1
24 13 10
24 14 9
24 15 8
24 16 9
24 17 4
24 18 3
24 19 6
24 20 2
24 21 2
24 22 9
24 23 6
25 0 1
25 1 9
25 2 6
25 3 7
25 4 5
25 5 7
25 6 1
25 7 5
25 8 5
25 9 9
25 10 10
25 11 6
25 12 2
25 13 7
25 14 1
25 15 1
25 16 10
25 17 3
25 18 7
25 19 7
25 20 2
25 21 1
25 22 9
25 23 2
25 24 3
26 0 2
26 1 10
26 2 8
26 3 6
26 4 2
26 5 3
26 6 4
26 7 5
26 8 5
26 9 2
26 10 6
26 11 7
26 12 5
26 13 2
26 14 7
26 15 6
26 16 4
26 17 4
26 18 4
26 19 7
26 20 5
26 21 3
26 22 1
26 23 7
26 24 9
26 25 1
27 0 7
27 1 1
27 2 2
27 3 3
27 4 10
27 5 1
27 6 4
27 7 9
27 8 3
27 9 2
27 10 5
27 11 5
27 12 3
27 13 2
27 14 1
27 15 2
27 16 1
27 17 1
27 18 8
27 19 3
27 20 5
27 21 5
27 22 3
27 23 6
27 24 1
27 25 1
27 26 9
28 0 3
28 1 9
28 2 10
28 3 1
28 4 4
28 5 7
28 6 7
28 7 4
28 8 9
28 9 9
28 10 7
28 11 10
28 12 3
28 13 3
28 14 6
28 15 7
28 16 2
28 17 2
28 18 8
28 19 2
28 20 6
28 21 8
28 22 4
28 23 10
28 24 8
28 25 8
28 26 1
28 27 6
29 0 8
29 1 8
29 2 1
29 3 9
29 4 2
29 5 7
29 6 5
29 7 8
29 8 8
29 9 1
29 10 8
29 11 3
29 12 10
29 13 6
29 14 1
29 15 1
29 16 1
29 17 2
29 18 6
29 19 1
29 20 5
29 21 9
29 22 6
29 23 4
29 24 5
29 25 1
29 26 10
29 27 6
29 28 7
30 0 3
30 1 1
30 2 1
30 3 7
30 4 4
30 5 4
30 6 7
30 7 9
30 8 6
30 9 7
30 10 4
30 11 1
30 12 8
30 13 7
30 14 8
30 15 5
30 16 1
30 17 4
30 18 5
30 19 5
30 20 10
30 21 3
30 22 4
30 23 10
30 24 7
30 25 2
30 26 2
30 27 3
30 28 1
30 29 5
31 0 5
31 1 8
31 2 2
31 3 6
31 4 4
31 5 7
31 6 4
31 7 9
31 8 5
31 9 8
31 10 3
31 11 8
31 12 8
31 13 4
31 14 4
31 15 1
31 16 10
31 17 9
31 18 4
31 19 1
31 20 10
31 21 10
31 22 2
31 23 8
31 24 9
31 25 7
31 26 4
31 27 4
31 28 2
31 29 5
31 30 5
32 0 9
32 1 7
32 2 6
32 3 1
32 4 2
32 5 8
32 6 4
32 7 10
32 8 10
32 9 2
32 10 8
32 11 7
32 12 2
32 13 4
32 14 3
32 15 4
32 16 5
32 17 1
32 18 7
32 19 3
32 20 7
32 21 4
32 22 3
32 23 1
32 24 6
32 25 1
32 26 5
32 27 3
32 28 4
32 29 6
32 30 8
32 31 6
33 0 10
33 1 4
33 2 3
33 3 3
33 4 7
33 5 10
33 6 1
33 7 1
33 8 1
33 9 7
33 10 3
33 11 4
33 12 1
33 13 6
33 14 4
33 15 3
33 16 2
33 17 2
33 18 1
33 19 7
33 20 8
33 21 7
33 22 10
33 23 3
33 24 7
33 25 8
33 26 9
33 27 1
33 28 5
33 29 5
33 30 4
33 31 2
33 32 1
34 0 5
34 1 3
34 2 1
34 3 3
34 4 3
34 5 10
34 6 6
34 7 2
34 8 5
34 9 1
34 10 1
34 11 7
34 12 4
34 13 6
34 14 4
34 15 4
34 16 7
34 17 2
34 18 10
34 19 7
34 20 6
34 21 9
34 22 10
34 23 3
34 24 10
34 25 10
34 26 6
34 27 9
34 28 6
34 29 9
34 30 2
34 31 1
34 32 2
34 33 7
35 0 3
35 1 10
35 2 4
35 3 10
35 4 10
35 5 6
35 6 7
35 7 1
35 8 7
35 9 5
35 10 4
35 11 7
35 12 2
35 13 9
35 14 3
35 15 4
35 16 7
35 17 10
35 18 9
35 19 7
35 20 5
35 21 1
35 22 7
35 23 1
35 24 8
35 25 8
35 26 2
35 27 1
35 28 2
35 29 9
35 30 10
35 31 6
35 32 4
35 33 3
35 34 1
36 0 6
36 1 2
36 2 5
36 3 1
36 4 4
36 5 2
36 6 4
36 7 7
36 8 6
36 9 3
36 10 9
36 11 9
36 12 8
36 13 3
36 14 5
36 15 10
36 16 6
36 17 4
36 18 7
36 19 9
36 20 2
36 21 7
36 22 2
36 23 10
36 24 8
36 25 5
36 26 10
36 27 5
36 28 5
36 29 6
36 30 2
36 31 6
36 32 5
36 33 8
36 34 2
36 35 5
37 0 1
37 1 8
37 2 10
37 3 9
37 4 8
37 5 5
37 6 4
37 7 9
37 8 8
37 9 3
37 10 10
37 11 8
37 12 8
37 13 2
37 14 1
37 15 5
37 16 3
37 17 3
37 18 10
37 19 9
37 20 2
37 21 7
37 22 10
37 23 6
37 24 9
37 25 2
37 26 9
37 27 9
37 28 4
37 29 9
37 30 2
37 31 5
37 32 3
37 33 4
37 34 1
37 35 7
37 36 10
38 0 8
38 1 4
38 2 1
38 3 3
38 4 3
38 5 7
38 6 9
38 7 10
38 8 5
38 9 7
38 10 1
38 11 5
38 12 7
38 13 5
38 14 5
38 15 1
38 16 4
38 17 6
38 18 10
38 19 5
38 20 2
38 21 10
38 22 3
38 23 6
38 24 2
38 25 3
38 26 6
38 27 10
38 28 7
38 29 10
38 30 3
38 31 10
38 32 8
38 33 5
38 34 10
38 35 10
38 36 3
38 37 3
39 0 3
39 1 5
39 2 1
39 3 6
39 4 10
39 5 2
39 6 3
39 7 8
39 8 10
39 9 4
39 10 1
39 11 3
39 12 4
39 13 5
39 14 6
39 15 2
39 16 8
39 17 3
39 18 5
39 19 6
39 20 7
39 21 9
39 22 3
39 23 3
39 24 8
39 25 7
39 26 2
39 27 3
39 28 2
39 29 2
39 30 4
39 31 9
39 32 3
39 33 7
39 34 2
39 35 9
39 36 1
39 37 8
39 38 6
40 0 4
40 1 3
40 2 7
40 3 1
40 4 7
40 5 4
40 6 4
40 7 6
40 8 3
40 9 3
40 10 4
40 11 3
40 12 7
40 13 4
40 14 4
40 15 3
40 16 8
40 17 4
40 18 10
40 19 3
40 20 5
40 21 8
40 22 7
40 23 9
40 24 8
40 25 6
40 26 8
40 27 8
40 28 10
40 29 9
40 30 1
40 31 4
40 32 1
40 33 7
40 34 2
40 35 1
40 36 1
40 37 1
40 38 1
40 39 6
41 0 9
41 1 4
41 2 8
41 3 8
41 4 5
41 5 6
41 6 4
41 7 4
41 8 2
41 9 3
41 10 5
41 11 1
41 12 8
41 13 10
41 14 9
41 15 2
41 16 5
41 17 10
41 18 9
41 19 8
41 20 4
41 21 1
41 22 4
41 23 2
41 24 10
41 25 9
41 26 8
41 27 9
41 28 5
41 29 6
41 30 3
41 31 8
41 32 9
41 33 3
41 34 6
41 35 6
41 36 5
41 37 8
41 38 5
41 39 7
41 40 4
42 0 5
42 1 1
42 2 2
42 3 1
42 4 1
42 5 4
42 6 4
42 7 7
42 8 2
42 9 4
42 10 4
42 11 6
42 12 9
42 13 9
42 14 8
42 15 4
42 16 9
42 17 8
42 18 3
42 19 6
42 20 10
42 21 1
42 22 4
42 23 4
42 24 7
42 25 6
42 26 1
42 27 1
42 28 5
42 29 4
42 30 7
42 31 8
42 32 6
42 33 7
42 34 6
42 35 6
42 36 3
42 37 10
42 38 6
42 39 8
42 40 2
42 41 6
43 0 2
43 1 1
43 2 7
43 3 2
43 4 3
43 5 6
43 6 9
43 7 9
43 8 10
43 9 5
43 10 4
43 11 3
43 12 3
43 13 7
43 14 7
43 15 3
43 16 7
43 17 1
43 18 6
43 19 5
43 20 1
43 21 2
43 22 3
43 23 3
43 24 7
43 25 6
43 26 8
43 27 8
43 28 6
43 29 4
43 30 6
43 31 9
43 32 3
43 33 10
43 34 9
43 35 8
43 36 1
43 37 3
43 38 3
43 39 4
43 40 8
43 41 8
43 42 9
44 0 8
44 1 1
44 2 4
44 3 9
44 4 9
44 5 6
44 6 10
44 7 8
44 8 9
44 9 8
44 10 6
44 11 2
44 12 1
44 13 2
44 14 9
44 15 5
44 16 7
44 17 8
44 18 7
44 19 10
44 20 4
44 21 1
44 22 4
44 23 9
44 24 8
44 25 4
44 26 4
44 27 3
44 28 2
44 29 5
44 30 3
44 31 10
44 32 9
44 33 1
44 34 9
44 35 10
44 36 3
44 37 7
44 38 6
44 39 2
44 40 2
44 41 8
44 42 7
44 43 1
45 0 2
45 1 9
45 2 8
45 3 1
45 4 10
45 5 1
45 6 8
45 7 4
45 8 3
45 9 8
45 10 7
45 11 3
45 12 7
45 13 10
45 14 2
45 15 4
45 16 9
45 17 5
45 18 3
45 19 3
45 20 8
45 21 8
45 22 5
45 23 9
45 24 6
45 25 4
45 26 2
45 27 2
45 28 9
45 29 10
45 30 9
45 31 6
45 32 2
45 33 8
45 34 1
45 35 10
45 36 3
45 37 1
45 38 1
45 39 8
45 40 9
45 41 1
45 42 3
45 43 2
45 44 2
46 0 10
46 1 5
46 2 4
46 3 7
46 4 9
46 5 10
46 6 4
46 7 3
46 8 5
46 9 3
46 10 5
46 11 5
46 12 9
46 13 1
46 14 7
46 15 4
46 16 2
46 17 9
46 18 9
46 19 9
46 20 9
46 21 1
46 22 9
46 23 6
46 24 4
46 25 9
46 26 5
46 27 6
46 28 5
46 29 6
46 30 7
46 31 10
46 32 8
46 33 8
46 34 4
46 35 2
46 36 8
46 37 6
46 38 1
46 39 7
46 40 5
46 41 5
46 42 7
46 43 9
46 44 4
46 45 10
47 0 6
47 1 9
47 2 1
47 3 6
47 4 1
47 5 3
47 6 9
47 7 8
47 8 10
47 9 9
47 10 10
47 11 6
47 12 1
47 13 10
47 14 2
47 15 7
47 16 6
47 17 9
47 18 2
47 19 8
47 20 6
47 21 2
47 22 3
47 23 6
47 24 8
47 25 4
47 26 5
47 27 3
47 28 3
47 29 8
47 30 10
47 31 4
47 32 10
47 33 5
47 34 9
47 35 4
47 36 9
47 37 1
47 38 5
47 39 1
47 40 10
47 41 5
47 42 3
47 43 3
47 44 8
47 45 3
47 46 5
48 0 6
48 1 9
48 2 7
48 3 1
48 4 2
48 5 3
48 6 9
48 7 2
48 8 9
48 9 9
48 10 5
48 11 3
48 12 1
48 13 9
48 14 5
48 15 3
48 16 10
48 17 10
48 18 7
48 19 6
48 20 5
48 21 4
48 22 7
48 23 1
48 24 3
48 25 5
48 26 6
48 27 6
48 28 8
48 29 7
48 30 7
48 31 2
48 32 8
48 33 4
48 34 10
48 35 4
48 36 6
48 37 8
48 38 7
48 39 8
48 40 6
48 41 4
48 42 10
48 43 6
48 44 1
48 45 6
48 46 10
48 47 7
49 0 2
49 1 7
49 2 7
49 3 5
49 4 6
49 5 10
49 6 3
49 7 7
49 8 2
49 9 7
49 10 2
49 11 9
49 12 7
49 13 4
49 14 9
49 15 8
49 16 6
49 17 2
49 18 1
49 19 9
49 20 10
49 21 10
49 22 7
49 23 2
49 24 2
49 25 9
49 26 1
49 27 3
49 28 3
49 29 3
49 30 5
49 31 3
49 32 4
49 33 8
49 34 2
49 35 6
49 36 8
49 37 8
49 38 10
49 39 7
49 40 10
49 41 4
49 42 3
49 43 7
49 44 10
49 45 2
49 46 5
49 47 1
49 48 6
